; Copyright (c) 2026 The RIINA Authors. All rights reserved.
; Copyright (c) 2026 The RIINA Authors.
; Auto-generated from 02_FORMAL/coq/domains/mobile_os/OnDeviceML.v (25 assertions)
; Generated by scripts/generate-full-stack.py
; Module: OnDeviceML

(set-logic ALL)
(set-option :produce-models true)

; ModelUpdateState (matches Coq: Inductive ModelUpdateState)
(declare-datatypes ((ModelUpdateState 0)) (((UpdateIdle) (UpdateInProgress) (UpdateComplete) (UpdateFailed))))

; Tensor (matches Coq: Record Tensor)
(declare-datatypes ((Tensor 0))
  (((mk-tensor (tensor_shape list) (tensor_data TensorData)))))

; MLModel (matches Coq: Record MLModel)
(declare-datatypes ((MLModel 0))
  (((mk-ml_model (model_id Int) (model_weights list) (model_version Int) (model_deterministic Bool)))))

; UserData (matches Coq: Record UserData)
(declare-datatypes ((UserData 0))
  (((mk-user_data (data_id Int) (data_content list) (data_sensitive Bool)))))

; InferenceRequest (matches Coq: Record InferenceRequest)
(declare-datatypes ((InferenceRequest 0))
  (((mk-inference_request (req_model MLModel) (req_input Tensor) (req_latency_ms Int) (req_max_latency_ms Int)))))

; MemoryBudget (matches Coq: Record MemoryBudget)
(declare-datatypes ((MemoryBudget 0))
  (((mk-memory_budget (budget_max_bytes Int) (model_size_bytes Int)))))

; ModelUpdate (matches Coq: Record ModelUpdate)
(declare-datatypes ((ModelUpdate 0))
  (((mk-model_update (update_old_model MLModel) (update_new_model MLModel) (update_state ModelUpdateState) (update_version_increased Bool)))))

; PrivacyBudget (matches Coq: Record PrivacyBudget)
(declare-datatypes ((PrivacyBudget 0))
  (((mk-privacy_budget (epsilon Int) (delta Int) (max_epsilon Int) (max_delta Int)))))

; Prediction (matches Coq: Record Prediction)
(declare-datatypes ((Prediction 0))
  (((mk-prediction (pred_class Int) (pred_confidence Int) (pred_calibrated Bool)))))

; ModelPolicy (matches Coq: Record ModelPolicy)
(declare-datatypes ((ModelPolicy 0))
  (((mk-model_policy (policy_model MLModel) (policy_exportable Bool) (policy_on_device_only Bool)))))

; TrainingData (matches Coq: Record TrainingData)
(declare-datatypes ((TrainingData 0))
  (((mk-training_data (td_records list) (td_anonymized Bool) (td_pii_removed Bool)))))

; InputAnalysis (matches Coq: Record InputAnalysis)
(declare-datatypes ((InputAnalysis 0))
  (((mk-input_analysis (ia_input Tensor) (ia_perturbation_score Int) (ia_threshold Int) (ia_flagged Bool)))))

; ModelWithFallback (matches Coq: Record ModelWithFallback)
(declare-datatypes ((ModelWithFallback 0))
  (((mk-model_with_fallback (primary_model MLModel) (fallback_model MLModel) (primary_available Bool)))))

; BatchRequest (matches Coq: Record BatchRequest)
(declare-datatypes ((BatchRequest 0))
  (((mk-batch_request (batch_id Int) (batch_inputs list) (batch_sequence list)))))

; QuantizedModel (matches Coq: Record QuantizedModel)
(declare-datatypes ((QuantizedModel 0))
  (((mk-quantized_model (qm_original_weights list) (qm_quantized_weights list) (qm_max_error Int)))))

; TensorData (matches Coq: Definition TensorData)
(define-fun TensorData () Type true)

; compute_inference (matches Coq: Definition compute_inference)
(define-fun compute_inference ((m MLModel) (input Tensor)) Tensor
  true)

; infer (matches Coq: Definition infer)
(define-fun infer ((m MLModel) (input Tensor)) Tensor
  true)

; transmitted (matches Coq: Definition transmitted)
(define-fun transmitted ((d UserData)) Prop
  False)

; used_for_inference (matches Coq: Definition used_for_inference)
(define-fun used_for_inference ((d UserData) (m MLModel)) Prop
  True)

; private_ml_system (matches Coq: Definition private_ml_system)
(define-fun private_ml_system () Prop true)

; input_shape_valid (matches Coq: Definition input_shape_valid)
(define-fun input_shape_valid ((input Tensor)) Prop
  true)

; output_bounded (matches Coq: Definition output_bounded)
(define-fun output_bounded ((output Tensor) (bound Int)) Prop
  true)

; latency_within_bound (matches Coq: Definition latency_within_bound)
(define-fun latency_within_bound ((r InferenceRequest)) Prop
  true)

; model_fits_memory (matches Coq: Definition model_fits_memory)
(define-fun model_fits_memory ((b MemoryBudget)) Prop
  true)

; update_atomic (matches Coq: Definition update_atomic)
(define-fun update_atomic ((u ModelUpdate)) Prop
  true)

; within_privacy_budget (matches Coq: Definition within_privacy_budget)
(define-fun within_privacy_budget ((pb PrivacyBudget)) Prop
  true)

; version_tracked (matches Coq: Definition version_tracked)
(define-fun version_tracked ((m MLModel)) Prop
  true)

; confidence_calibrated (matches Coq: Definition confidence_calibrated)
(define-fun confidence_calibrated ((p Prediction)) Prop
  true)

; model_not_exportable (matches Coq: Definition model_not_exportable)
(define-fun model_not_exportable ((mp ModelPolicy)) Prop
  true)

; data_anonymized (matches Coq: Definition data_anonymized)
(define-fun data_anonymized ((td TrainingData)) Prop
  true)

; adversarial_detected (matches Coq: Definition adversarial_detected)
(define-fun adversarial_detected ((ia InputAnalysis)) Prop
  true)

; fallback_ready (matches Coq: Definition fallback_ready)
(define-fun fallback_ready ((mf ModelWithFallback)) Prop
  true)

; batch_ordered (matches Coq: Definition batch_ordered)
(define-fun batch_ordered ((br BatchRequest)) Prop
  true)

; quantization_bounded (matches Coq: Definition quantization_bounded)
(define-fun quantization_bounded ((qm QuantizedModel)) Prop
  true)

; ml_inference_deterministic (matches Coq: Theorem ml_inference_deterministic)
(assert (= true true)) ; ml_inference_deterministic [untranslatable]

; inference_same_input_same_output (matches Coq: Theorem inference_same_input_same_output)
(assert (= true true)) ; inference_same_input_same_output [untranslatable]

; ml_data_private (matches Coq: Theorem ml_data_private)
(assert (= true true)) ; ml_data_private [untranslatable]

; inference_preserves_shape (matches Coq: Theorem inference_preserves_shape)
(assert (= true true)) ; inference_preserves_shape [untranslatable]

; different_model_version_matters (matches Coq: Theorem different_model_version_matters)
(assert (= true true)) ; different_model_version_matters [untranslatable]

; model_input_validated (matches Coq: Theorem model_input_validated)
(assert (= true true)) ; model_input_validated [untranslatable]

; model_output_bounded (matches Coq: Theorem model_output_bounded)
(assert (= true true)) ; model_output_bounded [untranslatable]

; inference_latency_bounded (matches Coq: Theorem inference_latency_bounded)
(assert (= true true)) ; inference_latency_bounded [untranslatable]

; model_size_within_memory (matches Coq: Theorem model_size_within_memory)
(assert (= true true)) ; model_size_within_memory [untranslatable]

; model_update_atomic (matches Coq: Theorem model_update_atomic)
(assert (= true true)) ; model_update_atomic [untranslatable]

; differential_privacy_guaranteed (matches Coq: Theorem differential_privacy_guaranteed)
(assert (= true true)) ; differential_privacy_guaranteed [untranslatable]

; model_version_tracked (matches Coq: Theorem model_version_tracked)
(assert (= true true)) ; model_version_tracked [untranslatable]

; feature_extraction_deterministic (matches Coq: Theorem feature_extraction_deterministic)
(assert (= true true)) ; feature_extraction_deterministic [untranslatable]

; prediction_confidence_calibrated (matches Coq: Theorem prediction_confidence_calibrated)
(assert (= true true)) ; prediction_confidence_calibrated [untranslatable]

; model_not_exported (matches Coq: Theorem model_not_exported)
(assert (= true true)) ; model_not_exported [untranslatable]

; training_data_anonymized (matches Coq: Theorem training_data_anonymized)
(assert (= true true)) ; training_data_anonymized [untranslatable]

; adversarial_input_detected (matches Coq: Theorem adversarial_input_detected)
(assert (= true true)) ; adversarial_input_detected [untranslatable]

; model_fallback_available (matches Coq: Theorem model_fallback_available)
(assert (= true true)) ; model_fallback_available [untranslatable]

; batch_inference_ordered (matches Coq: Theorem batch_inference_ordered)
(assert (= true true)) ; batch_inference_ordered [untranslatable]

; model_quantization_bounded_error (matches Coq: Theorem model_quantization_bounded_error)
(assert (= true true)) ; model_quantization_bounded_error [untranslatable]

; on_device_only_preserves_privacy (matches Coq: Theorem on_device_only_preserves_privacy)
(assert (= true true)) ; on_device_only_preserves_privacy [untranslatable]

; adversarial_implies_high_perturbation (matches Coq: Theorem adversarial_implies_high_perturbation)
(assert (= true true)) ; adversarial_implies_high_perturbation [untranslatable]

; batch_length_consistency (matches Coq: Theorem batch_length_consistency)
(assert (= true true)) ; batch_length_consistency [untranslatable]

; privacy_budget_epsilon_bounded (matches Coq: Theorem privacy_budget_epsilon_bounded)
(assert (= true true)) ; privacy_budget_epsilon_bounded [untranslatable]

; failed_update_preserves_version (matches Coq: Theorem failed_update_preserves_version)
(assert (= true true)) ; failed_update_preserves_version [untranslatable]

; Verify all assertions are satisfiable
(check-sat)
(exit)
